p cnf 21 48
a 18 14 0
e 1 2 3 4 5 6 7 8 9 10 11 12 13 15 16 17 19 20 21 0
-3 -1 0
-3 2 0
1 -2 3 0
-3 4 -5 0
3 -4 -5 0
-3 -4 5 0
3 4 5 0
6 7 -8 0
-6 -7 -8 0
6 -7 8 0
-6 7 8 0
10 8 0
10 9 0
-8 -9 -10 0
-11 -10 0
-11 -1 0
10 1 11 0
-13 8 0
-13 -10 0
-8 10 13 0
-12 -13 -14 0
12 13 -14 0
-12 13 14 0
12 -13 14 0
-15 16 0
15 16 0
-17 -14 0
-17 -16 0
14 16 17 0
-4 2 -18 0
4 -2 -18 0
-4 -2 18 0
4 2 18 0
-19 -17 0
-19 18 0
17 -18 19 0
20 11 0
20 19 0
-11 -19 -20 0
5 20 -21 0
-5 -20 -21 0
5 -20 21 0
-5 20 21 0
-16 -9 -12 -4 17 -5 11 0
-4 -16 -5 1 17 -13 20 0
10 16 -4 0
-11 -2 13 -1 0
21 0
